c Command line: hgen8 185 90
p cnf 185 284
87 126 9 26 0
81 156 112 129 0
62 18 61 42 0
92 184 146 124 0
125 118 63 175 0
117 48 150 20 0
77 65 105 57 0
164 80 96 174 0
1 172 5 54 0
170 131 15 70 0
73 116 71 120 0
17 29 56 169 0
25 133 104 171 0
140 168 58 85 0
43 149 11 160 0
167 176 106 59 0
24 86 180 72 0
2 53 49 158 0
91 183 46 153 0
136 45 51 115 0
38 76 135 132 0
94 35 139 60 0
151 113 75 19 0
37 89 143 6 0
23 177 28 82 0
165 50 142 159 0
152 182 68 163 0
83 103 123 119 0
130 4 155 161 0
144 34 3 179 0
110 134 10 52 0
100 107 13 27 0
157 67 111 78 0
14 90 22 99 0
55 102 40 127 0
88 178 108 141 0
95 173 47 148 0
121 138 36 166 0
-1 -2 0
-1 -3 0
-1 -4 0
-1 -5 0
-2 -3 0
-2 -4 0
-2 -5 0
-3 -4 0
-3 -5 0
-4 -5 0
-6 -9 0
-6 -10 0
-9 -10 0
-11 -13 0
-11 -14 0
-11 -15 0
-13 -14 0
-13 -15 0
-14 -15 0
-17 -18 0
-17 -19 0
-17 -20 0
-18 -19 0
-18 -20 0
-19 -20 0
-22 -23 0
-22 -24 0
-22 -25 0
-23 -24 0
-23 -25 0
-24 -25 0
-26 -27 0
-26 -28 0
-26 -29 0
-27 -28 0
-27 -29 0
-28 -29 0
-34 -35 0
-36 -37 0
-36 -38 0
-36 -40 0
-37 -38 0
-37 -40 0
-38 -40 0
-42 -43 0
-42 -45 0
-43 -45 0
-46 -47 0
-46 -48 0
-46 -49 0
-46 -50 0
-47 -48 0
-47 -49 0
-47 -50 0
-48 -49 0
-48 -50 0
-49 -50 0
-51 -52 0
-51 -53 0
-51 -54 0
-51 -55 0
-52 -53 0
-52 -54 0
-52 -55 0
-53 -54 0
-53 -55 0
-54 -55 0
-56 -57 0
-56 -58 0
-56 -59 0
-56 -60 0
-57 -58 0
-57 -59 0
-57 -60 0
-58 -59 0
-58 -60 0
-59 -60 0
-61 -62 0
-61 -63 0
-61 -65 0
-62 -63 0
-62 -65 0
-63 -65 0
-67 -68 0
-67 -70 0
-68 -70 0
-71 -72 0
-71 -73 0
-71 -75 0
-72 -73 0
-72 -75 0
-73 -75 0
-76 -77 0
-76 -78 0
-76 -80 0
-77 -78 0
-77 -80 0
-78 -80 0
-81 -82 0
-81 -83 0
-81 -85 0
-82 -83 0
-82 -85 0
-83 -85 0
-86 -87 0
-86 -88 0
-86 -89 0
-86 -90 0
-87 -88 0
-87 -89 0
-87 -90 0
-88 -89 0
-88 -90 0
-89 -90 0
-91 -92 0
-91 -94 0
-91 -95 0
-92 -94 0
-92 -95 0
-94 -95 0
-96 -99 0
-96 -100 0
-99 -100 0
-102 -103 0
-102 -104 0
-102 -105 0
-103 -104 0
-103 -105 0
-104 -105 0
-106 -107 0
-106 -108 0
-106 -110 0
-107 -108 0
-107 -110 0
-108 -110 0
-111 -112 0
-111 -113 0
-111 -115 0
-112 -113 0
-112 -115 0
-113 -115 0
-116 -117 0
-116 -118 0
-116 -119 0
-116 -120 0
-117 -118 0
-117 -119 0
-117 -120 0
-118 -119 0
-118 -120 0
-119 -120 0
-121 -123 0
-121 -124 0
-121 -125 0
-123 -124 0
-123 -125 0
-124 -125 0
-126 -127 0
-126 -129 0
-126 -130 0
-127 -129 0
-127 -130 0
-129 -130 0
-131 -132 0
-131 -133 0
-131 -134 0
-131 -135 0
-132 -133 0
-132 -134 0
-132 -135 0
-133 -134 0
-133 -135 0
-134 -135 0
-136 -138 0
-136 -139 0
-136 -140 0
-138 -139 0
-138 -140 0
-139 -140 0
-141 -142 0
-141 -143 0
-141 -144 0
-142 -143 0
-142 -144 0
-143 -144 0
-146 -148 0
-146 -149 0
-146 -150 0
-148 -149 0
-148 -150 0
-149 -150 0
-151 -152 0
-151 -153 0
-151 -155 0
-152 -153 0
-152 -155 0
-153 -155 0
-156 -157 0
-156 -158 0
-156 -159 0
-156 -160 0
-157 -158 0
-157 -159 0
-157 -160 0
-158 -159 0
-158 -160 0
-159 -160 0
-161 -163 0
-161 -164 0
-161 -165 0
-163 -164 0
-163 -165 0
-164 -165 0
-166 -167 0
-166 -168 0
-166 -169 0
-166 -170 0
-167 -168 0
-167 -169 0
-167 -170 0
-168 -169 0
-168 -170 0
-169 -170 0
-171 -172 0
-171 -173 0
-171 -174 0
-171 -175 0
-172 -173 0
-172 -174 0
-172 -175 0
-173 -174 0
-173 -175 0
-174 -175 0
-176 -177 0
-176 -178 0
-176 -179 0
-176 -180 0
-177 -178 0
-177 -179 0
-177 -180 0
-178 -179 0
-178 -180 0
-179 -180 0
-182 -183 0
-182 -184 0
-183 -184 0
